# CuZr simulation 

clear

boundary        p p p
units           metal
atom_style      atomic

read_data       Ag10.in.dat
mass            1  91.22
mass            2  63.55
mass            3  107.87



pair_style      eam/alloy
pair_coeff      * * ZrCuAg.lammps.eam Zr Cu Ag

timestep       0.001

thermo_style    custom step temp ke pe etotal enthalpy press vol pxx pyy pzz pyz pxz pxy
thermo          100

fix             1 all npt temp 1700 1700 0.2 iso 0.0 0.0 0.2
run     500000

dump            melt all custom 50000 dumpAg0prueba.lammpstrj id type x y z
fix             1 all npt temp 1700 400 0.2 iso 0 0 0.2
run 1600000

